NAME: berlin52
TYPE: TSP
COMMENT: 52 locations in Berlin (Groetschel)
DIMENSION: 52
EDGE_WEIGHT_TYPE: EUC_2D
NODE_COORD_SECTION

NAME: kroC100
TYPE: TSP
COMMENT: 100-city problem C (Krolak/Felts/Nelson)
DIMENSION: 100
EDGE_WEIGHT_TYPE : EUC_2D
NODE_COORD_SECTION

NAME : pr76
COMMENT : 76-city problem (Padberg/Rinaldi)
TYPE : TSP
DIMENSION : 76
EDGE_WEIGHT_TYPE : EUC_2D
NODE_COORD_SECTION

NAME: ch150
TYPE: TSP
COMMENT: 150 city Problem (churritz)
DIMENSION: 150
EDGE_WEIGHT_TYPE: EUC_2D
NODE_COORD_SECTION


